Second Year/First Semester/Algorithm Analysis/Homework 2/sat_in/bonus/03.wcnf
p wcnf 8 25 120
120 1 2 0
120 1 4 0
120 1 5 0
120 1 7 0
120 1 8 0
120 2 3 0
120 2 5 0
120 2 7 0
120 3 4 0
120 3 6 0
120 4 5 0
120 4 7 0
120 5 6 0
120 5 7 0
120 6 7 0
120 6 8 0
120 7 8 0
12 -1 0
14 -2 0
15 -3 0
15 -4 0
15 -5 0
15 -6 0
16 -7 0
17 -8 0
