Second Year - 2020-2021/First Semester/Algorithm Analysis/Homework 2/out/task2/03.out
True
4 5 6 